NAME: st70-20-0
TYPE: TSP
COMMENT: min_cost = 375.70
DIMENSION: 20
EDGE_WEIGHT_TYPE: EUC_2D
NODE_COORD_SECTION
1 56 63
2 89 60
3 30 23
4 92 34
5 25 5
6 17 22
7 75 81
8 58 43
9 7 76
10 5 67
11 98 7
12 79 17
13 25 76
14 17 82
15 10 55
16 77 13
17 64 96
18 48 67
19 58 85
20 42 67
EOF
